p wcnf 122 147 148 
1 79 14 0 
1 -79 117 0 
1 98 -97 0 
1 -119 96 0 
1 -74 -117 0 
1 75 40 0 
1 -67 9 0 
1 44 -6 0 
1 106 91 0 
1 11 116 0 
1 -73 85 0 
1 54 -21 0 
1 115 -52 0 
1 -122 -106 0 
1 -84 -92 0 
1 -112 66 0 
1 -109 -95 0 
1 -77 79 0 
1 -69 -49 0 
1 -51 17 0 
1 -44 -112 0 
1 -5 -13 0 
1 -17 -35 0 
1 56 89 0 
1 -91 76 0 
1 -77 -26 0 
1 -17 70 0 
1 112 106 0 
1 -54 46 0 
1 -40 17 0 
1 -89 -55 0 
1 -86 31 0 
1 -39 -62 0 
1 105 116 0 
1 -68 44 0 
1 -13 12 0 
1 -31 -90 0 
1 -79 121 0 
1 109 -114 0 
1 -7 -76 0 
1 1 22 0 
1 109 -85 0 
1 26 -21 0 
1 54 47 0 
1 98 89 0 
1 -76 72 0 
1 81 83 0 
1 -98 55 0 
1 85 -103 0 
1 -14 71 0 
1 41 21 0 
1 -67 -118 0 
1 95 -54 0 
1 57 -4 0 
1 37 113 0 
1 55 31 0 
1 -21 41 0 
1 104 40 0 
1 -68 17 0 
1 -68 -15 0 
1 118 31 0 
1 4 108 0 
1 102 -105 0 
1 67 15 0 
1 -64 98 0 
1 70 33 0 
1 11 92 0 
1 -100 25 0 
1 40 -87 0 
1 39 25 0 
1 67 18 0 
1 29 -5 0 
1 -59 5 0 
1 -40 -82 0 
1 -49 -48 0 
1 -12 -24 0 
1 -70 -60 0 
1 -32 72 0 
1 32 -117 0 
1 89 -115 0 
1 88 29 0 
1 -43 -38 0 
1 -60 -40 0 
1 81 -121 0 
1 -83 19 0 
1 -66 -102 0 
1 9 117 0 
1 106 6 0 
1 -85 88 0 
1 -71 -8 0 
1 -109 -97 0 
1 66 93 0 
1 -3 7 0 
1 -23 109 0 
1 -52 110 0 
1 36 75 0 
1 -3 25 0 
1 23 -38 0 
1 -5 -15 0 
1 84 45 0 
1 118 -84 0 
1 -81 56 0 
1 -43 -105 0 
1 11 -5 0 
1 -116 78 0 
1 61 -90 0 
1 104 -38 0 
1 -87 67 0 
1 -80 -65 0 
1 -18 -50 0 
1 89 -22 0 
1 -101 1 0 
1 -88 32 0 
1 2 109 0 
1 64 58 0 
1 100 -76 0 
1 -91 113 0 
1 26 -69 0 
1 -44 -60 0 
1 -36 121 0 
1 -73 -21 0 
1 43 -116 0 
1 75 29 0 
1 -26 24 0 
1 -5 12 0 
1 -76 -69 0 
1 52 -104 0 
1 106 -87 0 
1 -6 -79 0 
1 88 16 0 
1 66 -81 0 
1 -21 61 0 
1 -89 66 0 
1 30 -28 0 
1 71 -21 0 
1 -58 50 0 
1 -67 2 0 
1 -78 -47 0 
1 61 1 0 
1 -90 -120 0 
1 96 -103 0 
1 -9 108 0 
1 -53 -49 0 
1 33 -69 0 
1 8 40 0 
1 -79 -47 0 
1 97 -16 0 
